50
    1   425   415
    2   162   152
    3   474   464
    4   470   460
    5   384   374
    6   444   434
    7   405   395
    8   384   374
    9   258   248
   10   389   379
   11   447   437
   12   417   407
   13   439   429
   14   473   463
   15    53    43
   16   155   145
   17   371   361
   18    54    44
   19   388   378
   20    74    64
   21   365   355
   22    19     9
   23   393   383
   24    67    57
   25   226   216
   26   215   205
   27   194   184
   28   482   472
   29    38    28
   30   323   313
   31   138   128
   32   436   426
   33   235   225
   34   498   488
   35   450   440
   36   442   432
   37   399   389
   38   222   212
   39    40    30
   40    49    39
   41    63    53
   42   285   275
   43   233   223
   44   291   281
   45   386   376
   46   436   426
   47   264   254
   48   468   458
   49   450   440
   50   133   123
12005
